
  32    4
  10   10   10   10

   0   0   0   0   0  11 2 3 4 6 8 9 10 13 14 17 31 
   5  10  10  10  10   4 24 20 11 5 
   5  10  10  10  10   3 20 7 5 
   3  10  10  10  10   4 23 18 15 12 
   2  10  10  10  10   5 30 23 19 16 15 
   4  10  10  10  10   2 12 11 
  10  10  10  10  10   7 30 29 28 27 24 19 15 
   4  10  10  10  10   4 24 19 16 15 
   3  10  10  10  10   3 30 29 11 
   6  10  10  10  10   4 30 23 22 16 
  10  10  10  10  10   4 28 27 19 15 
   5  10  10  10  10   3 26 21 16 
   8  10  10  10  10   3 26 21 16 
   4  10  10  10  10   3 27 26 22 
   1  10  10  10  10   2 26 21 
  10  10  10  10  10   3 29 28 27 
   4  10  10  10  10   3 27 26 25 
   7  10  10  10  10   1 19 
   9  10  10  10  10   2 26 25 
   6  10  10  10  10   2 27 26 
   7  10  10  10  10   1 22 
   3  10  10  10  10   1 25 
   1  10  10  10  10   1 26 
   6  10  10  10  10   1 25 
   2  10  10  10  10   1 32
   4  10  10  10  10   1 32
   8  10  10  10  10   1 32
   2  10  10  10  10   1 32
   3  10  10  10  10   1 32
   9  10  10  10  10   1 32
   6  10  10  10  10   1 32
   0   0   0   0   0   0 
